<instance format="XCSP3" type="CSP">
  <variables>
    <var id="x0"> 5 13 </var>
    <var id="x1"> 5 8 10 13 </var>
    <var id="x2"> 5 7 8 10 </var>
    <var id="x3"> 7..10 13 </var>
    <var id="x4"> 7 9 10 12 </var>
    <var id="x5"> 9 10 12 13 </var>
    <var id="x6"> 5 8 9 12 </var>
    <var id="x7"> 1 6 13 </var>
    <var id="x8"> 2 6 8 13 </var>
    <var id="x9"> 2 8 9 13 </var>
    <var id="x10"> 1 6 9 12 </var>
    <var id="x11"> 6 9 </var>
    <var id="x12"> 2 6 13 </var>
    <var id="x13"> 2 6 9 13 </var>
    <var id="x14"> 2 6 </var>
    <var id="x15"> 1 6 7 </var>
    <var id="x16"> 1 4 14 </var>
    <var id="x17"> 1 2 4 6 </var>
    <var id="x18"> 3 6 7 14 </var>
    <var id="x19"> 3 6 </var>
    <var id="x20"> 2 3 6 </var>
    <var id="x21"> 5 8 11 </var>
    <var id="x22"> 2 5 </var>
    <var id="x23"> 4 5 9 </var>
    <var id="x24"> 3 8 9 11 </var>
    <var id="x25"> 2 3 5 11 </var>
    <var id="x26"> 3 9 11 </var>
    <var id="x27"> 2 3 5 9 </var>
    <var id="x28"> 2 5 6 10 13 </var>
    <var id="x29"> 5 13 </var>
    <var id="x30"> 3 6 11 </var>
    <var id="x31"> 2 5 6 </var>
    <var id="x32"> 6 7 10 </var>
    <var id="x33"> 2 3 5 6 10 11 13 </var>
    <var id="x34"> 3 6 10 11 13 </var>
    <var id="x35"> 2 3 5 6 11 </var>
    <var id="x36"> 4..6 </var>
    <var id="x37"> 0 5 6 10 </var>
    <var id="x38"> 0 5 7 10 </var>
    <var id="x39"> 0 7 14 </var>
    <var id="x40"> 0 6 7 10 </var>
    <var id="x41"> 5 6 10 </var>
    <var id="x42"> 5 6 </var>
    <var id="x43"> 1 7 8 10 11 </var>
    <var id="x44"> 1 8 9 </var>
    <var id="x45"> 7..10 13 </var>
    <var id="x46"> 1 7 11 13 </var>
    <var id="x47"> 1 7 9 10 </var>
    <var id="x48"> 8 9 11 </var>
    <var id="x49"> 9 13 </var>
    <var id="x50"> 3 5 6 11 </var>
    <var id="x51"> 2 5 6 10 </var>
    <var id="x52"> 2 9 10 </var>
    <var id="x53"> 3 11 </var>
    <var id="x54"> 3 6 9 11 </var>
    <var id="x55"> 3 6 9..11 </var>
    <var id="x56"> 2 3 5 6 9 </var>
    <var id="x57"> 0 6 8 </var>
    <var id="x58"> 1 6 8 </var>
    <var id="x59"> 0 12 </var>
    <var id="x60"> 0 3 6 8 12 </var>
    <var id="x61"> 1 6 8 </var>
    <var id="x62"> 0 1 3 14 </var>
    <var id="x63"> 3 6 14 </var>
    <var id="x64"> 1 5 6 11 13 </var>
    <var id="x65"> 10 13 </var>
    <var id="x66"> 1 6 10 12 </var>
    <var id="x67"> 6 11 </var>
    <var id="x68"> 5 6 10 11 13 </var>
    <var id="x69"> 6 10..13 </var>
    <var id="x70"> 5 6 11 12 </var>
    <var id="x71"> 0 2 12 13 </var>
    <var id="x72"> 4 12..14 </var>
    <var id="x73"> 0 6 12 </var>
    <var id="x74"> 2 4 6 </var>
    <var id="x75"> 2 4 13 </var>
    <var id="x76"> 0 13 14 </var>
    <var id="x77"> 2 6 13 14 </var>
    <var id="x78"> 0 2 7 13 </var>
    <var id="x79"> 9 13 </var>
    <var id="x80"> 0 3 8 9 </var>
    <var id="x81"> 0 7 9 </var>
    <var id="x82"> 0 3 7 9 </var>
    <var id="x83"> 2 3 13 </var>
    <var id="x84"> 2 3 8 9 </var>
    <var id="x85"> 5 13 </var>
    <var id="x86"> 3 6 9 11 </var>
    <var id="x87"> 1 5 6 9 </var>
    <var id="x88"> 1 3 11 13 </var>
    <var id="x89"> 3 6 9 11 </var>
    <var id="x90"> 3 6 9 11 13 </var>
    <var id="x91"> 3 5 6 9 13 </var>
    <var id="x92"> 5 6 11 13 </var>
    <var id="x93"> 5 6 11 </var>
    <var id="x94"> 5 9 12 13 </var>
    <var id="x95"> 0 6 9 11 12 </var>
    <var id="x96"> 5 6 9 </var>
    <var id="x97"> 9 13 </var>
    <var id="x98"> 0 6 9 11 </var>
    <var id="x99"> 3 5 6 11 </var>
    <var id="x100"> 5 6 10 11 </var>
    <var id="x101"> 0 5 10 </var>
    <var id="x102"> 5 9 </var>
    <var id="x103"> 0 3 11 </var>
    <var id="x104"> 3 5 6 10 11 </var>
    <var id="x105"> 3 5 6 9 11 </var>
  </variables>
  <constraints>
    <group>
      <allDifferent> %... </allDifferent>
      <args> x0 x1 x2 x3 x4 x5 x6 </args>
      <args> x7 x8 x9 x10 x11 x12 x13 </args>
      <args> x14 x15 x16 x17 x18 x19 x20 </args>
      <args> x21 x22 x23 x24 x25 x26 x27 </args>
      <args> x28 x29 x30 x31 x32 x33 x34 x35 </args>
      <args> x36 x37 x38 x39 x40 x41 x42 </args>
      <args> x43 x44 x45 x46 x47 x48 x49 </args>
      <args> x50 x51 x52 x53 x54 x55 x56 </args>
      <args> x57 x58 x59 x60 x61 x62 x63 </args>
      <args> x64 x65 x66 x67 x68 x69 x70 </args>
      <args> x71 x72 x73 x74 x75 x76 x77 </args>
      <args> x78 x79 x80 x81 x82 x83 x84 </args>
      <args> x85 x86 x87 x88 x89 x90 x91 </args>
      <args> x92 x93 x94 x95 x96 x97 x98 </args>
      <args> x99 x100 x101 x102 x103 x104 x105 </args>
      <args> x0 x7 x36 x50 x64 x92 x99 </args>
      <args> x1 x8 x14 x28 x37 x51 x57 </args>
      <args> x2 x15 x21 x43 x58 x93 x100 </args>
      <args> x22 x38 x59 x71 x78 x85 x101 </args>
      <args> x16 x23 x29 x72 x79 x94 x102 </args>
      <args> x24 x30 x60 x73 x80 x86 x95 </args>
      <args> x17 x31 x44 x61 x74 x87 x96 </args>
      <args> x3 x9 x45 x52 x65 x75 x97 </args>
      <args> x39 x46 x53 x62 x76 x88 x103 </args>
      <args> x4 x10 x32 x40 x47 x66 x81 </args>
      <args> x11 x18 x54 x67 x82 x89 x98 </args>
      <args> x12 x25 x33 x41 x68 x83 x104 </args>
      <args> x5 x19 x26 x34 x55 x69 x90 </args>
      <args> x6 x20 x35 x42 x48 x70 x84 x105 </args>
      <args> x13 x27 x49 x56 x63 x77 x91 </args>
    </group>
  </constraints>
</instance>

